id: 1133
name: neos-1140050
group: miplib2010
method: 2

Gurobi 7.0.2 (linux64, Matlab) logging started Mon Mar 26 10:15:16 2018


Gurobi 7.0.2 (linux64) logging started Mon Mar 26 10:15:16 2018

Optimize a model with 3795 rows, 40755 columns and 808515 nonzeros
Coefficient statistics:
  Matrix range     [6e-07, 3e+04]
  Objective range  [1e+01, 3e+04]
  Bounds range     [1e+00, 3e+04]
  RHS range        [1e+00, 3e+04]
Presolve removed 0 rows and 1680 columns
Presolve time: 0.14s
Presolved: 3795 rows, 39075 columns, 806835 nonzeros

Ordering time: 0.00s

Barrier statistics:
 Dense cols : 1680
 AA' NZ     : 7.342e+05
 Factor NZ  : 2.157e+06 (roughly 35 MBytes of memory)
 Factor Ops : 2.828e+09 (less than 1 second per iteration)
 Threads    : 4

                  Objective                Residual
Iter       Primal          Dual         Primal    Dual     Compl     Time
   0   1.15554142e+12 -1.09750924e+11  2.22e+06 0.00e+00  1.94e+07     1s
   1   2.74848194e+11 -7.21072350e+09  5.05e+05 8.05e-08  4.56e+06     1s
   2   1.73523552e+08 -8.20440447e+08  1.49e+02 2.33e-07  1.27e+04     1s
   3   2.32064579e+07 -5.57570577e+06  1.40e+01 1.62e-09  3.80e+02     1s
   4   7.13873624e+06  3.42292168e+06  1.11e+00 8.11e-11  4.69e+01     1s
   5   5.90991751e+06  4.69597402e+06  3.51e-01 9.58e-10  1.53e+01     1s
   6   5.35878043e+06  4.79986432e+06  1.15e-01 7.29e-10  7.02e+00     1s
   7   5.20216070e+06  4.88245356e+06  4.69e-02 4.37e-10  4.01e+00     1s
   8   5.12365149e+06  4.98520937e+06  1.53e-02 2.17e-08  1.74e+00     1s
   9   5.08994836e+06  5.04591461e+06  4.14e-03 3.67e-08  5.52e-01     1s
  10   5.07702512e+06  5.06284071e+06  8.34e-04 5.25e-08  1.78e-01     1s
  11   5.07450446e+06  5.06790856e+06  3.85e-04 2.96e-07  8.27e-02     1s
  12   5.07290493e+06  5.07044936e+06  1.49e-04 1.16e-06  3.08e-02     1s
  13   5.07239200e+06  5.07106490e+06  8.70e-05 1.64e-06  1.66e-02     1s
  14   5.07178961e+06  5.07125828e+06  1.81e-05 1.71e-06  6.65e-03     1s
  15   5.07166834e+06  5.07148607e+06  6.17e-06 2.12e-06  2.26e-03     1s
  16   5.07161058e+06  5.07155620e+06  1.21e-06 7.63e-07  6.75e-04     1s
  17   5.07160753e+06  5.07168051e+06  9.95e-07 4.41e-05  4.81e-04     1s
  18   5.07159740e+06  5.07173044e+06  2.46e-07 5.02e-05  2.02e-04     1s
  19   5.07159642e+06  5.07172098e+06  1.86e-07 4.30e-05  1.74e-04     1s
  20   5.07159638e+06  5.07175618e+06  1.71e-07 4.27e-05  1.53e-04     2s
  21   5.07159610e+06  5.07169502e+06  1.53e-07 1.34e-04  1.02e-04     2s
  22   5.07159457e+06  5.07155603e+06  5.22e-08 5.02e-05  2.83e-05     2s
  23   5.07159457e+06  5.07160434e+06  5.68e-08 8.51e-05  2.83e-05     2s
  24   5.07159457e+06  5.07158933e+06  4.19e-08 7.93e-05  2.29e-05     2s
  25   5.07159451e+06  5.07169679e+06  4.19e-08 8.36e-05  2.01e-05     2s
  26   5.07159450e+06  5.07169368e+06  4.66e-08 8.35e-05  1.99e-05     2s
  27   5.07159449e+06  5.07099427e+06  3.91e-08 1.08e-04  1.27e-05     2s
  28   5.07159441e+06  5.07098453e+06  4.28e-08 1.29e-04  9.68e-06     2s
  29   5.07159440e+06  5.07104027e+06  3.82e-08 1.29e-04  9.23e-06     2s
  30   5.07159437e+06  5.07102004e+06  3.35e-08 1.26e-04  8.56e-06     2s
  31   5.07159434e+06  5.07109159e+06  3.35e-08 1.23e-04  7.41e-06     2s
  32   5.07159433e+06  5.07152245e+06  3.45e-08 1.10e-04  6.48e-06     2s
  33   5.07159432e+06  5.07153362e+06  3.73e-08 1.35e-04  6.11e-06     2s
  34   5.07159431e+06  5.07153921e+06  3.54e-08 1.37e-04  5.99e-06     2s
  35   5.07159431e+06  5.07152306e+06  4.28e-08 1.43e-04  5.99e-06     2s
  36   5.07159428e+06  5.07137033e+06  3.35e-08 1.40e-04  5.48e-06     2s
  37   5.07159427e+06  5.07136048e+06  3.45e-08 1.33e-04  5.26e-06     3s
  38   5.07159426e+06  5.07135080e+06  3.26e-08 1.28e-04  5.02e-06     3s
  39   5.07159426e+06  5.07139020e+06  3.35e-08 1.13e-04  4.81e-06     3s
  40   5.07159425e+06  5.07179392e+06  2.89e-08 1.79e-04  4.62e-06     3s
  41   5.07159419e+06  5.07182367e+06  2.61e-08 1.57e-04  3.53e-06     3s
  42   5.07159418e+06  5.07181419e+06  4.10e-08 1.58e-04  3.41e-06     3s
  43   5.07159417e+06  5.07180593e+06  2.79e-08 1.52e-04  3.22e-06     3s
  44   5.07159416e+06  5.07181599e+06  2.89e-08 1.22e-04  2.51e-06     3s
  45   5.07159415e+06  5.07126916e+06  3.54e-08 1.33e-04  2.33e-06     3s
  46   5.07159414e+06  5.07132070e+06  2.61e-08 1.04e-04  1.98e-06     3s
  47   5.07159412e+06  5.07143788e+06  2.79e-08 1.16e-04  1.54e-06     3s
  48   5.07159411e+06  5.07137452e+06  2.24e-08 1.07e-04  1.24e-06     3s
  49   5.07159411e+06  5.07138651e+06  2.98e-08 1.03e-04  1.20e-06     3s
  50   5.07159411e+06  5.07134607e+06  2.98e-08 8.18e-05  1.03e-06     3s
  51   5.07159411e+06  5.07138781e+06  2.61e-08 7.72e-05  9.52e-07     3s
  52   5.07159408e+06  5.07141467e+06  2.79e-08 7.48e-05  5.88e-07     3s

Barrier solved model in 52 iterations and 3.43 seconds
Optimal objective 5.07159408e+06

Crossover log...

    1935 DPushes remaining with DInf 6.9496754e-04                 3s
       0 DPushes remaining with DInf 3.0710989e-12                 4s

    4899 PPushes remaining with PInf 1.0607754e-02                 4s
       0 PPushes remaining with PInf 0.0000000e+00                 4s

  Push phase complete: Pinf 0.0000000e+00, Dinf 1.2217791e+02      4s

Iteration    Objective       Primal Inf.    Dual Inf.      Time
    6791    5.0715937e+06   0.000000e+00   1.221779e+02      4s
    7062    5.0715937e+06   0.000000e+00   0.000000e+00      4s

Solved in 7062 iterations and 4.07 seconds
Optimal objective  5.071593662e+06
status: OPTIMAL
